(set-logic HORN)
(set-info :source |
    Benchmark: C_VC
    Output by Princess (http://www.philipp.ruemmer.org/princess.shtml)
|)
(set-info :status sat)
(declare-fun inv_main10 (Int Int) Bool)
(declare-fun inv_main11 (Int Int) Bool)
(declare-fun inv_main2 () Bool)
(assert inv_main2)
(assert (forall ((var0 Int) (var1 Int)) (or (not (and (inv_main11 var1 var0) (<= 0 (+ (+ 100 (* (- 1) var1)) (- 1))))) (inv_main11 (+ var1 var0) var0))))
(assert (forall ((var0 Int) (var1 Int)) (or (not (and inv_main2 (and (<= 0 (+ var1 (- 1))) (<= 0 (+ 1000000 (* (- 1) var1)))))) (inv_main11 var0 var1))))
(assert (forall ((var0 Int) (var1 Int)) (or (not (and (inv_main11 var1 var0) (not (<= 0 (+ (+ 100 (* (- 1) var1)) (- 1)))))) (inv_main10 var1 var0))))
(assert (forall ((var0 Int) (var1 Int)) (or (not (and inv_main2 (and (not (<= 0 (+ var1 (- 1)))) (<= 0 (+ 1000000 (* (- 1) var1)))))) (inv_main10 var0 var1))))
(assert (forall ((var0 Int) (var1 Int)) (not (and (inv_main10 var1 var0) (and (not (<= 0 (* (- 1) var0))) (or (not (<= 0 (+ var0 (- 1)))) (not (<= 0 (+ var1 (- 100))))))))))
(check-sat)
